db/inputs/24666276544953196652507222052270941340.smt2
(set-logic QF_FP)
(declare-const x0 (_ FloatingPoint 8 24))
(declare-const x1 (_ FloatingPoint 8 24))
(declare-const x2 (_ FloatingPoint 8 24))
(declare-const x3 (_ FloatingPoint 8 24))
(declare-const x4 (_ FloatingPoint 8 24))
(declare-const x5 (_ FloatingPoint 8 24))
(declare-const x6 (_ FloatingPoint 8 24))
(declare-const x7 (_ FloatingPoint 8 24))
(declare-const x8 (_ FloatingPoint 8 24))
(declare-const x9 (_ FloatingPoint 8 24))
(assert (fp.geq (fp.div RNE x5 x9) (fp.mul RNE x7 x6)))
(assert (fp.geq (fp.sub RNE x5 x5) (fp.add RNE x5 x5)))
(assert (fp.gt (fp.neg x7) (fp.neg x3)))
(assert (fp.lt (fp.sub RNE x2 x0) (fp.add RNE x3 x9)))
(check-sat)
