db/data/24666276544953196652507222052270941340.z3.out
sat
-------------------
4.095300916
